3114959
3114960
3114961
3114962
3114967
3114968
3114969
3114970
3114976
3114977
3114978
3114979
3114984
3114985
3114986
3114987
3114993
3114995
3114997
3114998
3115003
3115004
3115005
3115006
3115011
3115012
3115013
3115019
3115020
3115021
3115027
3115028
3115029
3115030
3115031
3115032
3115033
3115044
3115045
3115046
3115047
3115048
3115049
3115050
3115061
3115062
3115063
3115069
3115070
3115071
3115077
3115078
3115079
3115080
3115081
3115082
3115083
3115102
3115103
3115104
3115105
3115798
3115799
3115800
3115801
3115806
3115807
3115808
3115809
3115815
3115816
3115817
3115818
3115819
3115820
3115821
3115822
3115831
3115832
3115833
3115834
3115835
3115836
3115837
3115838
3115839
3115840
3115841
3115842
3115860
3115861
3115862
3115863
3115864
3115865
3115866
3115867
3115868
3115869
3115870
3115871
3115886
3115887
3115888
3115889
3115890
3115891
3115892
3115893
3115894
3115895
3115910
3115911
3115912
3115913
3115919
3115920
3115921
3115927
3115928
3115929
3115935
3115936
3115937
3115944
3115945
3115947
3115948
3115950
3115951
3115967
3115968
3115969
3115970
3115971
3115972
3115973
3115974
3115975
3115976
3115992
3115993
3115994
3116100
3116101
3116102
3116103
3116108
3116109
3116110
3116111
3116117
3116118
3116119
3116120
3116125
3116126
3116127
3116128
3116129
3116130
3116131
3116132
3116141
3116142
3116143
3116144
3116149
3116150
3116151
3116152
3116153
3116154
3116155
3116156
3116165
3116166
3116167
3116168
3116169
3116170
3116171
3116172
3116183
3116184
3116185
3116186
3116191
3116192
3116193
3116194
3116199
3116200
3116201
3116202
3116203
3116204
3116205
3116216
3116217
3116218
3116219
3116220
3116221
3116222
3116223
3116224
3116225
3116226
3116227
3116228
3116229
3116250
3116251
3116252
3116253
3116254
3116255
3116266
3116267
3116268
3116274
3116275
3116276
3116293
3116294
3116295
3116296
3116402
3116403
3116404
3116405
3116406
3116407
3116408
3116409
3116418
3116419
3116420
3116421
3116422
3116423
3116424
3116425
3116435
3116436
3116437
3116438
3116439
3116440
3116441
3116442
3116452
3116453
3116454
3116455
3116460
3116461
3116462
3116463
3116468
3116469
3116470
3116471
3116477
3116478
3116479
3116481
3116488
3116489
3116490
3116491
3116492
3116493
3116504
3116505
3116506
3116507
3116513
3116514
3116515
3116521
3116522
3116523
3116529
3116530
3116531
3116532
3116545
3116546
3116547
3116548
3118666
3118667
3118668
3118669
3118670
3118671
3118672
3118673
3118682
3118683
3118684
3118685
3118686
3118687
3118688
3118689
3118698
3118699
3118700
3118701
3118706
3118707
3118708
3118709
3118710
3118711
3118712
3118713
3118714
3118715
3118725
3118726
3118727
3118728
3118729
3118730
3118731
3118732
3118739
3118740
3118741
3118742
3118743
3118744
3118745
3118747
3118753
3118754
3118755
3118756
3118761
3118762
3118763
3118764
3118769
3118771
3118773
3118774
3118780
3118781
3118782
3118788
3118789
3118790
3118791
3118792
3118793
3118794
3118805
3118806
3118807
3118808
3118809
3118810
3118811
3118819
3118820
3118821
3119974
3119975
3119976
3119977
3119982
3119983
3119984
3119985
3120016
3120018
3120020
3120022
3120032
3120033
3120034
3120035
3120083
3120085
3120087
3120089
3120108
3120109
3120110
3120111
3120117
3120118
3120119
3120120
3120121
3120122
3120123
3120134
3120136
3120138
3120174
3120176
3120178
3120180
3120190
3120192
3120194
3120196
3123137
3123139
3123141
3123143
3123167
3123168
3123169
3123170
3123177
3123179
3123181
3123183
3123194
3123195
3123198
3123199
3123202
3123203
3123206
3123207
3123228
3123229
3123232
3123233
3123236
3123237
3123240
3123241
3123260
3123261
3123262
3123264
3123265
3123271
3123272
3123273
3123279
3123280
3123281
3123282
3123283
3123284
3123285
3123297
3123299
3123301
3123311
3123312
3123313
3123314
3123315
3123316
3123317
3123328
3123329
3123330
3123331
3123341
3123344
3123360
3123363
3123366
3123369
3123385
3123386
3123388
3123389
3123391
3123392
3123394
3123395
3124591
3124592
3124593
3124594
3124595
3124596
3124597
3124598
3124599
3124600
3124601
3124602
3124617
3124618
3124619
3124620
3124621
3124622
3124623
3124624
3124625
3124626
3124627
3124628
3124629
3124630
3124631
3124632
3124651
3124652
3124653
3124654
3124655
3124656
3124657
3124658
3124659
3124660
3124661
3124662
3124663
3124664
3124665
3124666
3124702
3124703
3124704
3124705
3124708
3124709
3124710
3124711
3124712
3124713
3124714
3124715
3124716
3124717
3124718
3124719
3124734
3124735
3124736
3124737
3124738
3124739
3124740
3124741
3124752
3124754
3124756
3124763
3124764
3124765
3124766
3124767
3124768
3124769
3124778
3124779
3124780
3124781
3124787
3124788
3124789
3124790
3124795
3124796
3124797
3124798
3124799
3124800
3124801
3124812
3124813
3124814
3124815
3124816
3124817
3124818
3124819
3124820
3124821
3124837
3124838
3124839
3124840
3124841
3124842
3124843
3124844
3124845
3124846
3124862
3124863
3124864
3124865
3124874
3124875
3124876
3124877
3124878
3124879
3124880
3124881
3124882
3124883
3124884
3124885
3124886
3124887
3124908
3124909
3124910
3124911
3124912
3124913
3124914
3124915
3124916
3124917
3124918
3124919
3124920
3124921
3124942
3124943
3124944
3124945
3124946
3124947
3124948
3125250
3125251
3125252
3125253
3125254
3125255
3125256
3125257
3125266
3125267
3125268
3125269
3125270
3125271
3125272
3125273
3125316
3125317
3125318
3125319
3125324
3125325
3125326
3125327
3125328
3125329
3125330
3125331
3125332
3125333
3125334
3125348
3125349
3125350
3125351
3125352
3125353
3125354
3125365
3125366
3125367
3125368
3125369
3125370
3125371
3125372
3125373
3125382
3125383
3125384
3125389
3125390
3125391
3125392
3125393
3125394
3125395
3125396
3125407
3125408
3125409
3125410
3125411
3125412
3125413
3125414
3125423
3125424
3125425
3125429
3125430
3125431
3125432
3125436
3125437
3125438
3125439
3125445
3125446
3125447
3125448
3125449
3125450
3125451
3125461
3125462
3125463
3125464
3125467
3125468
3125469
3125470
3125471
3125472
3125483
3125484
3125485
3125934
3125935
3125936
3125937
3125938
3125943
3125944
3125945
3125949
3125950
3125951
3125952
3125953
3125954
3125955
3125966
3125967
3125968
3125969
3125985
3125986
3125992
3125993
3125994
3126000
3126001
3126002
3126003
3126004
3126005
3126006
3126007
3126022
3126023
3126024
3126025
3126026
3126027
3126028
3126029
3126040
3126041
3126042
3126043
3126044
3126045
3126046
3126047
3126056
3126057
3126058
3126059
3126060
3126061
3126066
3126067
3126068
3126069
3126070
3126071
3126072
3126073
3126079
3126080
3126081
3126082
3126090
3126091
3126092
3126093
3126094
3126095
3126096
3126106
3126107
3126108
3126109
3126110
3126111
3126112
3126119
3126120
3126121
3126122
3126123
3126124
3126125
3126148
3126149
3126150
3126156
3126157
3126175
3126176
3126177
3126178
3126179
3126180
3126181
3126182
3126191
3126192
3126193
3126194
3126195
3126196
3126197
3126198
3126207
3126208
3126209
3126210
3126211
3126212
3126213
3126222
3126223
3126224
3126225
3126226
3126227
3126228
3126239
3126240
3126241
3126246
3126247
3126248
3126254
3126255
3126256
3126257
3126263
3126264
3126265
3126266
3126271
3126272
3126273
3126274
3126275
3126276
3126277
3126286
3126287
3126288
3126289
3126290
3126291
3126292
3126302
3126303
3126304
3126305
3126306
3126307
3126308
3126333
3126334
3126335
3126341
3126342
3126343
3126344
3126349
3126350
3126351
3126352
3126353
3126354
3126355
3126356
3126380
3126381
3126382
3126383
3126384
3126385
3126390
3126391
3126392
3126393
3126394
3126395
3126396
3126403
3126404
3126405
3126406
3126407
3126408
3126409
3126420
3126421
3126422
3126423
3126424
3126425
3126441
3126442
3126443
3126444
3126445
3126446
3126457
3126458
3126459
3126465
3126466
3126467
3126468
3126479
3126480
3126481
3126482
3126483
3126484
3126485
3126486
3126497
3126498
3126499
3126500
3126501
3126502
3126503
3126504
3126515
3126516
3126517
3126518
3126519
3126520
3126521
3126522
3126523
3126524
3126535
3126536
3126537
3126538
3126539
3126540
3126541
3126551
3126552
3126553
3126554
3126557
3126558
3126559
3126645
3126646
3126647
3126648
3126651
3126652
3126653
3126654
3126658
3126659
3126660
3126661
3126662
3126663
3126664
3126671
3126672
3126673
